(set-option :produce-models true)
(set-option :produce-unsat-cores true)
(set-option :produce-interpolants true)
(set-option :interpolant-check-mode true)
(set-option :proof-transformation LU)
(set-logic ALL)
(set-info :source |SMT script generated on 2024-03-31T00:11:44+01:00 by Ultimate (https://ultimate.informatik.uni-freiburg.de/)|)
(set-info :smt-lib-version 2.5)
(set-info :category "industrial")
(set-info :ultimate-id string-1.i_AllErrorsAtOnce_Iteration7)
(declare-fun |c_old(#valid)| () (Array Int Int))
(declare-fun |c_old(#valid)_primed| () (Array Int Int))
(declare-fun |c_#valid| () (Array Int Int))
(declare-fun |c_#valid_primed| () (Array Int Int))
(declare-fun |c_old(#length)| () (Array Int Int))
(declare-fun |c_old(#length)_primed| () (Array Int Int))
(declare-fun |c_#length| () (Array Int Int))
(declare-fun |c_#length_primed| () (Array Int Int))
(declare-fun |c_old(#memory_int#0)| () (Array Int (Array Int Int)))
(declare-fun |c_old(#memory_int#0)_primed| () (Array Int (Array Int Int)))
(declare-fun |c_#memory_int#0| () (Array Int (Array Int Int)))
(declare-fun |c_#memory_int#0_primed| () (Array Int (Array Int Int)))
(declare-fun |c_old(#memory_int#1)| () (Array Int (Array Int Int)))
(declare-fun |c_old(#memory_int#1)_primed| () (Array Int (Array Int Int)))
(declare-fun |c_#memory_int#1| () (Array Int (Array Int Int)))
(declare-fun |c_#memory_int#1_primed| () (Array Int (Array Int Int)))
(declare-fun |c_old(#memory_int#2)| () (Array Int (Array Int Int)))
(declare-fun |c_old(#memory_int#2)_primed| () (Array Int (Array Int Int)))
(declare-fun |c_#memory_int#2| () (Array Int (Array Int Int)))
(declare-fun |c_#memory_int#2_primed| () (Array Int (Array Int Int)))
(declare-fun |c_old(#StackHeapBarrier)| () Int)
(declare-fun |c_old(#StackHeapBarrier)_primed| () Int)
(declare-fun |c_#StackHeapBarrier| () Int)
(declare-fun |c_#StackHeapBarrier_primed| () Int)
(declare-fun |c_reach_error_#t~nondet0.base| () Int)
(declare-fun |c_reach_error_#t~nondet0.base_primed| () Int)
(declare-fun |c_reach_error_#t~nondet0.offset| () Int)
(declare-fun |c_reach_error_#t~nondet0.offset_primed| () Int)
(declare-fun |c_#Ultimate.allocInit_~size| () Int)
(declare-fun |c_#Ultimate.allocInit_~size_primed| () Int)
(declare-fun |c_#Ultimate.allocInit_ptrBase| () Int)
(declare-fun |c_#Ultimate.allocInit_ptrBase_primed| () Int)
(declare-fun |c___VERIFIER_nondet_char_#res| () Int)
(declare-fun |c___VERIFIER_nondet_char_#res_primed| () Int)
(declare-fun |c_read~int#2_#ptr.base| () Int)
(declare-fun |c_read~int#2_#ptr.base_primed| () Int)
(declare-fun |c_read~int#2_#ptr.offset| () Int)
(declare-fun |c_read~int#2_#ptr.offset_primed| () Int)
(declare-fun |c_read~int#2_#sizeOfReadType| () Int)
(declare-fun |c_read~int#2_#sizeOfReadType_primed| () Int)
(declare-fun |c_read~int#2_#value| () Int)
(declare-fun |c_read~int#2_#value_primed| () Int)
(declare-fun |c_read~int#1_#ptr.base| () Int)
(declare-fun |c_read~int#1_#ptr.base_primed| () Int)
(declare-fun |c_read~int#1_#ptr.offset| () Int)
(declare-fun |c_read~int#1_#ptr.offset_primed| () Int)
(declare-fun |c_read~int#1_#sizeOfReadType| () Int)
(declare-fun |c_read~int#1_#sizeOfReadType_primed| () Int)
(declare-fun |c_read~int#1_#value| () Int)
(declare-fun |c_read~int#1_#value_primed| () Int)
(declare-fun |c_read~int#0_#ptr.base| () Int)
(declare-fun |c_read~int#0_#ptr.base_primed| () Int)
(declare-fun |c_read~int#0_#ptr.offset| () Int)
(declare-fun |c_read~int#0_#ptr.offset_primed| () Int)
(declare-fun |c_read~int#0_#sizeOfReadType| () Int)
(declare-fun |c_read~int#0_#sizeOfReadType_primed| () Int)
(declare-fun |c_read~int#0_#value| () Int)
(declare-fun |c_read~int#0_#value_primed| () Int)
(declare-fun |c_assume_abort_if_not_#in~cond| () Int)
(declare-fun |c_assume_abort_if_not_#in~cond_primed| () Int)
(declare-fun c_assume_abort_if_not_~cond () Int)
(declare-fun c_assume_abort_if_not_~cond_primed () Int)
(declare-fun |c_main_#res| () Int)
(declare-fun |c_main_#res_primed| () Int)
(declare-fun |c_main_#t~nondet1| () Int)
(declare-fun |c_main_#t~nondet1_primed| () Int)
(declare-fun |c_main_#t~post2| () Int)
(declare-fun |c_main_#t~post2_primed| () Int)
(declare-fun |c_main_#t~mem3| () Int)
(declare-fun |c_main_#t~mem3_primed| () Int)
(declare-fun |c_main_#t~nondet4| () Int)
(declare-fun |c_main_#t~nondet4_primed| () Int)
(declare-fun |c_main_#t~post5| () Int)
(declare-fun |c_main_#t~post5_primed| () Int)
(declare-fun |c_main_#t~mem6| () Int)
(declare-fun |c_main_#t~mem6_primed| () Int)
(declare-fun |c_main_#t~mem7| () Int)
(declare-fun |c_main_#t~mem7_primed| () Int)
(declare-fun |c_main_#t~post8| () Int)
(declare-fun |c_main_#t~post8_primed| () Int)
(declare-fun |c_main_#t~mem9| () Int)
(declare-fun |c_main_#t~mem9_primed| () Int)
(declare-fun |c_main_#t~post10| () Int)
(declare-fun |c_main_#t~post10_primed| () Int)
(declare-fun |c_main_#t~mem11| () Int)
(declare-fun |c_main_#t~mem11_primed| () Int)
(declare-fun |c_main_#t~mem12| () Int)
(declare-fun |c_main_#t~mem12_primed| () Int)
(declare-fun |c_main_#t~post13| () Int)
(declare-fun |c_main_#t~post13_primed| () Int)
(declare-fun |c_main_#t~post14| () Int)
(declare-fun |c_main_#t~post14_primed| () Int)
(declare-fun |c_main_~#string_A~0.base| () Int)
(declare-fun |c_main_~#string_A~0.base_primed| () Int)
(declare-fun |c_main_~#string_A~0.offset| () Int)
(declare-fun |c_main_~#string_A~0.offset_primed| () Int)
(declare-fun |c_main_~#string_B~0.base| () Int)
(declare-fun |c_main_~#string_B~0.base_primed| () Int)
(declare-fun |c_main_~#string_B~0.offset| () Int)
(declare-fun |c_main_~#string_B~0.offset_primed| () Int)
(declare-fun c_main_~i~0 () Int)
(declare-fun c_main_~i~0_primed () Int)
(declare-fun c_main_~j~0 () Int)
(declare-fun c_main_~j~0_primed () Int)
(declare-fun c_main_~nc_A~0 () Int)
(declare-fun c_main_~nc_A~0_primed () Int)
(declare-fun c_main_~nc_B~0 () Int)
(declare-fun c_main_~nc_B~0_primed () Int)
(declare-fun c_main_~found~0 () Int)
(declare-fun c_main_~found~0_primed () Int)
(declare-fun |c_#Ultimate.allocOnStack_~size| () Int)
(declare-fun |c_#Ultimate.allocOnStack_~size_primed| () Int)
(declare-fun |c_#Ultimate.allocOnStack_#res.base| () Int)
(declare-fun |c_#Ultimate.allocOnStack_#res.base_primed| () Int)
(declare-fun |c_#Ultimate.allocOnStack_#res.offset| () Int)
(declare-fun |c_#Ultimate.allocOnStack_#res.offset_primed| () Int)
(declare-fun |c_write~int#0_#value| () Int)
(declare-fun |c_write~int#0_#value_primed| () Int)
(declare-fun |c_write~int#0_#ptr.base| () Int)
(declare-fun |c_write~int#0_#ptr.base_primed| () Int)
(declare-fun |c_write~int#0_#ptr.offset| () Int)
(declare-fun |c_write~int#0_#ptr.offset_primed| () Int)
(declare-fun |c_write~int#0_#sizeOfWrittenType| () Int)
(declare-fun |c_write~int#0_#sizeOfWrittenType_primed| () Int)
(declare-fun |c_write~int#1_#value| () Int)
(declare-fun |c_write~int#1_#value_primed| () Int)
(declare-fun |c_write~int#1_#ptr.base| () Int)
(declare-fun |c_write~int#1_#ptr.base_primed| () Int)
(declare-fun |c_write~int#1_#ptr.offset| () Int)
(declare-fun |c_write~int#1_#ptr.offset_primed| () Int)
(declare-fun |c_write~int#1_#sizeOfWrittenType| () Int)
(declare-fun |c_write~int#1_#sizeOfWrittenType_primed| () Int)
(declare-fun |c_write~int#2_#value| () Int)
(declare-fun |c_write~int#2_#value_primed| () Int)
(declare-fun |c_write~int#2_#ptr.base| () Int)
(declare-fun |c_write~int#2_#ptr.base_primed| () Int)
(declare-fun |c_write~int#2_#ptr.offset| () Int)
(declare-fun |c_write~int#2_#ptr.offset_primed| () Int)
(declare-fun |c_write~int#2_#sizeOfWrittenType| () Int)
(declare-fun |c_write~int#2_#sizeOfWrittenType_primed| () Int)
(declare-fun |c___assert_#in~__assertion.base| () Int)
(declare-fun |c___assert_#in~__assertion.base_primed| () Int)
(declare-fun |c___assert_#in~__assertion.offset| () Int)
(declare-fun |c___assert_#in~__assertion.offset_primed| () Int)
(declare-fun |c___assert_#in~__file.base| () Int)
(declare-fun |c___assert_#in~__file.base_primed| () Int)
(declare-fun |c___assert_#in~__file.offset| () Int)
(declare-fun |c___assert_#in~__file.offset_primed| () Int)
(declare-fun |c___assert_#in~__line| () Int)
(declare-fun |c___assert_#in~__line_primed| () Int)
(declare-fun |c_ULTIMATE.start_#t~ret15| () Int)
(declare-fun |c_ULTIMATE.start_#t~ret15_primed| () Int)
(declare-fun |c___VERIFIER_assert_#in~cond| () Int)
(declare-fun |c___VERIFIER_assert_#in~cond_primed| () Int)
(declare-fun c___VERIFIER_assert_~cond () Int)
(declare-fun c___VERIFIER_assert_~cond_primed () Int)
(declare-fun |c_write~init~int#2_#value| () Int)
(declare-fun |c_write~init~int#2_#value_primed| () Int)
(declare-fun |c_write~init~int#2_#ptr.base| () Int)
(declare-fun |c_write~init~int#2_#ptr.base_primed| () Int)
(declare-fun |c_write~init~int#2_#ptr.offset| () Int)
(declare-fun |c_write~init~int#2_#ptr.offset_primed| () Int)
(declare-fun |c_write~init~int#2_#sizeOfWrittenType| () Int)
(declare-fun |c_write~init~int#2_#sizeOfWrittenType_primed| () Int)
(declare-fun |c_write~init~int#1_#value| () Int)
(declare-fun |c_write~init~int#1_#value_primed| () Int)
(declare-fun |c_write~init~int#1_#ptr.base| () Int)
(declare-fun |c_write~init~int#1_#ptr.base_primed| () Int)
(declare-fun |c_write~init~int#1_#ptr.offset| () Int)
(declare-fun |c_write~init~int#1_#ptr.offset_primed| () Int)
(declare-fun |c_write~init~int#1_#sizeOfWrittenType| () Int)
(declare-fun |c_write~init~int#1_#sizeOfWrittenType_primed| () Int)
(declare-fun |c___assert_fail_#in~__assertion.base| () Int)
(declare-fun |c___assert_fail_#in~__assertion.base_primed| () Int)
(declare-fun |c___assert_fail_#in~__assertion.offset| () Int)
(declare-fun |c___assert_fail_#in~__assertion.offset_primed| () Int)
(declare-fun |c___assert_fail_#in~__file.base| () Int)
(declare-fun |c___assert_fail_#in~__file.base_primed| () Int)
(declare-fun |c___assert_fail_#in~__file.offset| () Int)
(declare-fun |c___assert_fail_#in~__file.offset_primed| () Int)
(declare-fun |c___assert_fail_#in~__line| () Int)
(declare-fun |c___assert_fail_#in~__line_primed| () Int)
(declare-fun |c___assert_fail_#in~__function.base| () Int)
(declare-fun |c___assert_fail_#in~__function.base_primed| () Int)
(declare-fun |c___assert_fail_#in~__function.offset| () Int)
(declare-fun |c___assert_fail_#in~__function.offset_primed| () Int)
(declare-fun |c___assert_perror_fail_#in~__errnum| () Int)
(declare-fun |c___assert_perror_fail_#in~__errnum_primed| () Int)
(declare-fun |c___assert_perror_fail_#in~__file.base| () Int)
(declare-fun |c___assert_perror_fail_#in~__file.base_primed| () Int)
(declare-fun |c___assert_perror_fail_#in~__file.offset| () Int)
(declare-fun |c___assert_perror_fail_#in~__file.offset_primed| () Int)
(declare-fun |c___assert_perror_fail_#in~__line| () Int)
(declare-fun |c___assert_perror_fail_#in~__line_primed| () Int)
(declare-fun |c___assert_perror_fail_#in~__function.base| () Int)
(declare-fun |c___assert_perror_fail_#in~__function.base_primed| () Int)
(declare-fun |c___assert_perror_fail_#in~__function.offset| () Int)
(declare-fun |c___assert_perror_fail_#in~__function.offset_primed| () Int)
(declare-fun |c_write~init~int#0_#value| () Int)
(declare-fun |c_write~init~int#0_#value_primed| () Int)
(declare-fun |c_write~init~int#0_#ptr.base| () Int)
(declare-fun |c_write~init~int#0_#ptr.base_primed| () Int)
(declare-fun |c_write~init~int#0_#ptr.offset| () Int)
(declare-fun |c_write~init~int#0_#ptr.offset_primed| () Int)
(declare-fun |c_write~init~int#0_#sizeOfWrittenType| () Int)
(declare-fun |c_write~init~int#0_#sizeOfWrittenType_primed| () Int)
(declare-fun c_ULTIMATE.dealloc_~addr.base () Int)
(declare-fun c_ULTIMATE.dealloc_~addr.base_primed () Int)
(declare-fun c_ULTIMATE.dealloc_~addr.offset () Int)
(declare-fun c_ULTIMATE.dealloc_~addr.offset_primed () Int)
(declare-fun |c_aux_v_main_#t~post10_2| () Int)
(declare-fun c_aux_v_main_~found~0_5 () Int)
(declare-fun |c_aux_v_main_#t~nondet1_2| () Int)
(declare-fun |c_aux_v_main_#t~nondet4_2| () Int)
(declare-fun |c_aux_v_main_#t~post8_2| () Int)
(declare-fun |c_aux_v_ULTIMATE.start_#t~ret15_3| () Int)
(declare-fun |c_aux_v_main_#t~nondet4_3| () Int)
(declare-fun |c_aux_v_main_#t~nondet4_4| () Int)
(declare-fun |c_aux_v_main_#t~nondet1_3| () Int)
(declare-fun |c_aux_v_main_#t~nondet1_4| () Int)
(declare-fun c_aux_v_ArrVal_1 () Int)
(declare-fun c_aux_v_ArrVal_4 () Int)
(declare-fun c_aux_v_ArrVal_2 () Int)
(declare-fun c_aux_v_ArrVal_3 () Int)
(declare-fun c_aux_v_main_~found~0_6 () Int)
(declare-fun c_aux_v_ArrVal_5 () Int)
(declare-fun c_aux_v_ArrVal_8 () Int)
(declare-fun c_aux_v_ArrVal_6 () Int)
(declare-fun c_aux_v_ArrVal_7 () Int)
(declare-fun c_aux_v_main_~found~0_7 () Int)
(declare-fun c_aux_v_ArrVal_10 () (Array Int Int))
(declare-fun c_aux_v_ArrVal_9 () Int)
(declare-fun |c_aux_v_main_#t~nondet1_5| () Int)
(declare-fun c_aux_v_ArrVal_11 () (Array Int Int))
(declare-fun |c_aux_v_main_#t~nondet4_5| () Int)
(declare-fun c_aux_v_ArrVal_12 () Int)
(declare-fun c_aux_v_ArrVal_13 () Int)
(declare-fun c_aux_v_ArrVal_14 () Int)
(declare-fun c_aux_v_ArrVal_15 () Int)
(declare-fun c_aux_v_ArrVal_16 () Int)
(declare-fun c_aux_v_main_~found~0_8 () Int)
(declare-fun c_aux_v_ArrVal_18 () Int)
(declare-fun |c_aux_v_main_#t~nondet1_6| () Int)
(declare-fun c_aux_v_ArrVal_17 () (Array Int Int))
(declare-fun c_aux_v_ArrVal_19 () Int)
(declare-fun c_aux_v_ArrVal_20 () (Array Int Int))
(declare-fun |c_aux_v_main_#t~nondet1_7| () Int)
(declare-fun c_aux_v_ArrVal_21 () (Array Int Int))
(declare-fun c_aux_v_ArrVal_22 () Int)
(declare-fun |c_aux_v_main_#t~nondet4_6| () Int)
(declare-fun |c_aux_v_main_#t~nondet4_7| () Int)
(declare-fun c_aux_v_ArrVal_24 () (Array Int Int))
(declare-fun c_aux_v_ArrVal_23 () Int)
(declare-fun c_aux_v_ArrVal_28 () Int)
(declare-fun c_aux_v_ArrVal_25 () Int)
(declare-fun c_aux_v_ArrVal_26 () Int)
(declare-fun c_aux_v_ArrVal_27 () Int)
(declare-fun c_aux_v_main_~found~0_9 () Int)
(declare-fun |c_aux_v_main_#t~nondet1_8| () Int)
(declare-fun c_aux_v_ArrVal_29 () (Array Int Int))
(declare-fun c_aux_v_ArrVal_30 () Int)
(declare-fun c_aux_v_ArrVal_32 () (Array Int Int))
(declare-fun c_aux_v_ArrVal_31 () Int)
(declare-fun |c_aux_v_main_#t~nondet1_9| () Int)
(declare-fun |c_aux_v_main_#t~nondet1_10| () Int)
(declare-fun c_aux_v_ArrVal_34 () (Array Int Int))
(declare-fun c_aux_v_ArrVal_33 () Int)
(declare-fun c_aux_v_ArrVal_35 () Int)
(declare-fun |c_aux_v_main_#t~nondet4_8| () Int)
(declare-fun c_aux_v_ArrVal_36 () (Array Int Int))
(declare-fun |c_aux_v_main_#t~nondet4_9| () Int)
(declare-fun c_aux_v_ArrVal_37 () Int)
(declare-fun c_aux_v_ArrVal_38 () (Array Int Int))
(declare-fun c_aux_v_ArrVal_39 () Int)
(declare-fun c_aux_v_ArrVal_40 () (Array Int Int))
(declare-fun |c_aux_v_main_#t~nondet4_10| () Int)
(declare-fun c_aux_v_ArrVal_42 () Int)
(declare-fun c_aux_v_ArrVal_43 () Int)
(declare-fun c_aux_v_ArrVal_44 () Int)
(declare-fun c_aux_v_main_~found~0_10 () Int)
(declare-fun c_aux_v_ArrVal_41 () Int)
(declare-fun |c_aux_v_main_#t~nondet1_11| () Int)
(declare-fun c_aux_v_ArrVal_46 () (Array Int Int))
(declare-fun c_aux_v_ArrVal_45 () Int)
(declare-fun |c_aux_v_main_#t~nondet1_12| () Int)
(declare-fun c_aux_v_ArrVal_48 () Int)
(declare-fun c_aux_v_ArrVal_47 () (Array Int Int))
(declare-fun |c_aux_v_main_#t~nondet1_13| () Int)
(declare-fun c_aux_v_ArrVal_49 () (Array Int Int))
(declare-fun c_aux_v_ArrVal_50 () Int)
(declare-fun c_aux_v_ArrVal_51 () (Array Int Int))
(declare-fun |c_aux_v_main_#t~nondet1_14| () Int)
(declare-fun c_aux_v_ArrVal_52 () Int)
(declare-fun c_aux_v_ArrVal_53 () (Array Int Int))
(declare-fun c_aux_v_ArrVal_54 () Int)
(declare-fun |c_aux_v_main_#t~nondet4_11| () Int)
(declare-fun c_aux_v_ArrVal_56 () (Array Int Int))
(declare-fun c_aux_v_ArrVal_55 () Int)
(declare-fun |c_aux_v_main_#t~nondet4_12| () Int)
(declare-fun c_aux_v_ArrVal_57 () Int)
(declare-fun c_aux_v_ArrVal_58 () (Array Int Int))
(declare-fun |c_aux_v_main_#t~nondet4_13| () Int)
(declare-fun c_aux_v_ArrVal_60 () (Array Int Int))
(declare-fun c_aux_v_ArrVal_59 () Int)
(declare-fun |c_aux_v_main_#t~nondet4_14| () Int)
(declare-fun c_aux_v_ArrVal_64 () Int)
(declare-fun c_aux_v_main_~found~0_11 () Int)
(declare-fun c_aux_v_ArrVal_61 () Int)
(declare-fun c_aux_v_ArrVal_62 () Int)
(declare-fun c_aux_v_ArrVal_63 () Int)
(declare-fun c_aux_v_ArrVal_66 () (Array Int Int))
(declare-fun |c_aux_v_main_#t~nondet1_15| () Int)
(declare-fun c_aux_v_ArrVal_65 () Int)
(declare-fun |c_aux_v_main_#t~nondet1_16| () Int)
(declare-fun c_aux_v_ArrVal_68 () (Array Int Int))
(declare-fun c_aux_v_ArrVal_67 () Int)
(declare-fun c_aux_v_ArrVal_70 () Int)
(declare-fun |c_aux_v_main_#t~nondet1_17| () Int)
(declare-fun c_aux_v_ArrVal_69 () (Array Int Int))
(declare-fun c_aux_v_ArrVal_71 () (Array Int Int))
(declare-fun |c_aux_v_main_#t~nondet1_18| () Int)
(declare-fun c_aux_v_ArrVal_72 () Int)
(declare-fun c_aux_v_ArrVal_73 () (Array Int Int))
(declare-fun |c_aux_v_main_#t~nondet1_19| () Int)
(declare-fun c_aux_v_ArrVal_74 () Int)
(declare-fun c_aux_v_ArrVal_75 () (Array Int Int))
(declare-fun c_aux_v_ArrVal_76 () Int)
(declare-fun |c_aux_v_main_#t~nondet4_15| () Int)
(declare-fun c_aux_v_ArrVal_77 () (Array Int Int))
(declare-fun |c_aux_v_main_#t~nondet4_16| () Int)
(declare-fun c_aux_v_ArrVal_78 () Int)
(declare-fun c_aux_v_ArrVal_80 () Int)
(declare-fun |c_aux_v_main_#t~nondet4_17| () Int)
(declare-fun c_aux_v_ArrVal_79 () (Array Int Int))
(declare-fun |c_aux_v_main_#t~nondet4_18| () Int)
(declare-fun c_aux_v_ArrVal_82 () Int)
(declare-fun c_aux_v_ArrVal_81 () (Array Int Int))
(declare-fun c_aux_v_ArrVal_84 () (Array Int Int))
(declare-fun |c_aux_v_main_#t~nondet4_19| () Int)
(declare-fun c_aux_v_ArrVal_83 () Int)
(echo "starting trace check")
(push 1)
(declare-fun |#memory_int#0_-1| () (Array Int (Array Int Int)))
(declare-fun |#valid_-1| () (Array Int Int))
(declare-fun |#length_-1| () (Array Int Int))
(declare-fun |#memory_int#2_-1| () (Array Int (Array Int Int)))
(declare-fun |#memory_int#1_-1| () (Array Int (Array Int Int)))
(declare-fun |old(#memory_int#0)_-1| () (Array Int (Array Int Int)))
(declare-fun |old(#valid)_-1| () (Array Int Int))
(declare-fun |old(#length)_-1| () (Array Int Int))
(declare-fun |old(#memory_int#2)_-1| () (Array Int (Array Int Int)))
(declare-fun |old(#memory_int#1)_-1| () (Array Int (Array Int Int)))
(declare-fun |#StackHeapBarrier_-1| () Int)
(declare-fun |old(#valid)_3| () (Array Int Int))
(declare-fun |old(#length)_3| () (Array Int Int))
(declare-fun |old(#memory_int#2)_3| () (Array Int (Array Int Int)))
(declare-fun |old(#memory_int#1)_3| () (Array Int (Array Int Int)))
(declare-fun |#valid_3| () (Array Int Int))
(declare-fun |#length_3| () (Array Int Int))
(declare-fun |#memory_int#2_3| () (Array Int (Array Int Int)))
(declare-fun |#memory_int#1_3| () (Array Int (Array Int Int)))
(declare-fun |main_~#string_B~0.base_4| () Int)
(declare-fun |main_~#string_A~0.offset_4| () Int)
(declare-fun |main_~#string_B~0.offset_4| () Int)
(declare-fun |main_~#string_A~0.base_4| () Int)
(declare-fun main_~j~0_4 () Int)
(declare-fun |#valid_4| () (Array Int Int))
(declare-fun main_~i~0_4 () Int)
(declare-fun |#length_4| () (Array Int Int))
(declare-fun main_~nc_A~0_4 () Int)
(declare-fun main_~nc_B~0_4 () Int)
(declare-fun v_ArrVal_86_fresh_1 () Int)
(declare-fun v_ArrVal_87_fresh_1 () Int)
(declare-fun v_ArrVal_88_fresh_1 () Int)
(declare-fun v_main_~found~0_12_fresh_1 () Int)
(declare-fun v_ArrVal_85_fresh_1 () Int)
(declare-fun main_~i~0_5 () Int)
(declare-fun |main_#t~post2_5| () Int)
(declare-fun |#memory_int#2_5| () (Array Int (Array Int Int)))
(declare-fun v_ArrVal_90_fresh_1 () Int)
(declare-fun |v_main_#t~nondet1_20_fresh_1| () Int)
(declare-fun v_ArrVal_89_fresh_1 () (Array Int Int))
(declare-fun main_~i~0_6 () Int)
(declare-fun |main_#t~post2_6| () Int)
(declare-fun |#memory_int#2_6| () (Array Int (Array Int Int)))
(declare-fun |v_main_#t~nondet1_21_fresh_1| () Int)
(declare-fun v_ArrVal_92_fresh_1 () Int)
(declare-fun v_ArrVal_91_fresh_1 () (Array Int Int))
(declare-fun main_~i~0_7 () Int)
(declare-fun |main_#t~post2_7| () Int)
(declare-fun |#memory_int#2_7| () (Array Int (Array Int Int)))
(declare-fun v_ArrVal_93_fresh_1 () (Array Int Int))
(declare-fun |v_main_#t~nondet1_22_fresh_1| () Int)
(declare-fun v_ArrVal_94_fresh_1 () Int)
(declare-fun main_~i~0_8 () Int)
(declare-fun |main_#t~post2_8| () Int)
(declare-fun |#memory_int#2_8| () (Array Int (Array Int Int)))
(declare-fun v_ArrVal_96_fresh_1 () (Array Int Int))
(declare-fun |v_main_#t~nondet1_23_fresh_1| () Int)
(declare-fun v_ArrVal_95_fresh_1 () Int)
(declare-fun main_~i~0_9 () Int)
(declare-fun |main_#t~post2_9| () Int)
(declare-fun |#memory_int#2_9| () (Array Int (Array Int Int)))
(declare-fun |v_main_#t~nondet1_24_fresh_1| () Int)
(declare-fun v_ArrVal_98_fresh_1 () (Array Int Int))
(declare-fun v_ArrVal_97_fresh_1 () Int)
(declare-fun main_~i~0_10 () Int)
(declare-fun |main_#t~mem3_11| () Int)
(declare-fun |main_#t~mem3_12| () Int)
(declare-fun main_~i~0_12 () Int)
(declare-fun main_~i~0_13 () Int)
(declare-fun |main_#t~post5_13| () Int)
(declare-fun |#memory_int#1_13| () (Array Int (Array Int Int)))
(declare-fun |v_main_#t~nondet4_20_fresh_1| () Int)
(declare-fun v_ArrVal_99_fresh_1 () (Array Int Int))
(declare-fun v_ArrVal_100_fresh_1 () Int)
(declare-fun main_~i~0_14 () Int)
(declare-fun |main_#t~post5_14| () Int)
(declare-fun |#memory_int#1_14| () (Array Int (Array Int Int)))
(declare-fun v_ArrVal_102_fresh_1 () Int)
(declare-fun v_ArrVal_101_fresh_1 () (Array Int Int))
(declare-fun |v_main_#t~nondet4_21_fresh_1| () Int)
(declare-fun main_~i~0_15 () Int)
(declare-fun |main_#t~post5_15| () Int)
(declare-fun |#memory_int#1_15| () (Array Int (Array Int Int)))
(declare-fun v_ArrVal_104_fresh_1 () Int)
(declare-fun |v_main_#t~nondet4_22_fresh_1| () Int)
(declare-fun v_ArrVal_103_fresh_1 () (Array Int Int))
(declare-fun main_~i~0_16 () Int)
(declare-fun |main_#t~post5_16| () Int)
(declare-fun |#memory_int#1_16| () (Array Int (Array Int Int)))
(declare-fun v_ArrVal_106_fresh_1 () (Array Int Int))
(declare-fun |v_main_#t~nondet4_23_fresh_1| () Int)
(declare-fun v_ArrVal_105_fresh_1 () Int)
(declare-fun main_~i~0_17 () Int)
(declare-fun |main_#t~post5_17| () Int)
(declare-fun |#memory_int#1_17| () (Array Int (Array Int Int)))
(declare-fun v_ArrVal_108_fresh_1 () (Array Int Int))
(declare-fun |v_main_#t~nondet4_24_fresh_1| () Int)
(declare-fun v_ArrVal_107_fresh_1 () Int)
(declare-fun main_~i~0_18 () Int)
(declare-fun |main_#t~mem6_19| () Int)
(declare-fun |main_#t~mem6_20| () Int)
(declare-fun main_~nc_A~0_20 () Int)
(declare-fun |main_#t~mem7_21| () Int)
(declare-fun |main_#t~mem7_22| () Int)
(declare-fun main_~nc_B~0_23 () Int)
(declare-fun |main_#t~mem9_24| () Int)
(declare-fun main_~nc_B~0_25 () Int)
(declare-fun |main_#t~mem9_25| () Int)
(declare-fun |v_main_#t~post10_3_fresh_1| () Int)
(declare-fun |main_#t~mem9_26| () Int)
(declare-fun |main_#t~mem9_27| () Int)
(declare-fun main_~j~0_28 () Int)
(declare-fun main_~i~0_28 () Int)
(declare-fun main_~i~0_29 () Int)
(declare-fun main_~nc_A~0_29 () Int)
(declare-fun main_~found~0_30 () Int)
(declare-fun main_~j~0_30 () Int)
(declare-fun main_~nc_B~0_30 () Int)
(declare-fun main_~found~0_31 () Int)
(declare-fun |__VERIFIER_assert_#in~cond_31| () Int)
(declare-fun __VERIFIER_assert_~cond_32 () Int)
(declare-fun __VERIFIER_assert_~cond_33 () Int)
(assert (! true :named ssa_precond))
(assert (! (not false) :named ssa_postcond))
(assert (! true :named ssa_0_GlobVarAssigCall))
(assert (! true :named ssa_0_LocVarAssigCall))
(assert (! true :named ssa_0_OldVarAssigCall))
(assert (! (and (= (select |#valid_-1| 2) 1) (< 0 |#StackHeapBarrier_-1|) (= (select |#length_-1| 2) 11) (= (select |#valid_-1| 0) 0) (= 2 (select |#length_-1| 1)) (= (select (select |#memory_int#0_-1| 1) 1) 0) (= (select |#valid_-1| 1) 1) (= (select (select |#memory_int#0_-1| 1) 0) 48)) :named ssa_1))
(assert (! true :named ssa_2_return))
(assert (! (and (= |old(#valid)_3| |#valid_3|) (= |old(#memory_int#2)_3| |#memory_int#2_3|) (= |#length_3| |old(#length)_3|) (= |old(#memory_int#1)_3| |#memory_int#1_3|)) :named ssa_3_GlobVarAssigCall))
(assert (! true :named ssa_3_LocVarAssigCall))
(assert (! (and (= |old(#length)_3| |#length_-1|) (= |#valid_-1| |old(#valid)_3|) (= |old(#memory_int#2)_3| |#memory_int#2_-1|) (= |old(#memory_int#1)_3| |#memory_int#1_-1|)) :named ssa_3_OldVarAssigCall))
(assert (! (and (< |#StackHeapBarrier_-1| |main_~#string_A~0.base_4|) (= v_main_~found~0_12_fresh_1 0) (= 5 v_ArrVal_86_fresh_1) (= main_~i~0_4 0) (= (select |#valid_3| |main_~#string_A~0.base_4|) 0) (= |main_~#string_A~0.offset_4| 0) (= 5 v_ArrVal_87_fresh_1) (not (= |main_~#string_B~0.base_4| 0)) (= v_ArrVal_88_fresh_1 1) (= (select (store |#valid_3| |main_~#string_A~0.base_4| v_ArrVal_88_fresh_1) |main_~#string_B~0.base_4|) 0) (= |main_~#string_B~0.offset_4| 0) (= (store (store |#length_3| |main_~#string_A~0.base_4| v_ArrVal_87_fresh_1) |main_~#string_B~0.base_4| v_ArrVal_86_fresh_1) |#length_4|) (not (= |main_~#string_A~0.base_4| 0)) (= (store (store |#valid_3| |main_~#string_A~0.base_4| v_ArrVal_88_fresh_1) |main_~#string_B~0.base_4| v_ArrVal_85_fresh_1) |#valid_4|) (= v_ArrVal_85_fresh_1 1) (< |#StackHeapBarrier_-1| |main_~#string_B~0.base_4|)) :named ssa_4))
(assert (! (and (<= |v_main_#t~nondet1_20_fresh_1| 127) (= (store (select |#memory_int#2_3| |main_~#string_A~0.base_4|) (+ main_~i~0_4 |main_~#string_A~0.offset_4|) |v_main_#t~nondet1_20_fresh_1|) v_ArrVal_89_fresh_1) (<= 0 (+ |v_main_#t~nondet1_20_fresh_1| 128)) (= (store |#memory_int#2_3| |main_~#string_A~0.base_4| v_ArrVal_89_fresh_1) |#memory_int#2_5|) (= main_~i~0_5 (+ main_~i~0_4 1)) (= |v_main_#t~nondet1_20_fresh_1| v_ArrVal_90_fresh_1) (< main_~i~0_4 5)) :named ssa_5))
(assert (! (and (<= 0 (+ |v_main_#t~nondet1_21_fresh_1| 128)) (= main_~i~0_6 (+ main_~i~0_5 1)) (= |v_main_#t~nondet1_21_fresh_1| v_ArrVal_92_fresh_1) (= |#memory_int#2_6| (store |#memory_int#2_5| |main_~#string_A~0.base_4| v_ArrVal_91_fresh_1)) (= v_ArrVal_91_fresh_1 (store (select |#memory_int#2_5| |main_~#string_A~0.base_4|) (+ main_~i~0_5 |main_~#string_A~0.offset_4|) |v_main_#t~nondet1_21_fresh_1|)) (<= |v_main_#t~nondet1_21_fresh_1| 127) (< main_~i~0_5 5)) :named ssa_6))
(assert (! (and (= |v_main_#t~nondet1_22_fresh_1| v_ArrVal_94_fresh_1) (<= |v_main_#t~nondet1_22_fresh_1| 127) (<= 0 (+ |v_main_#t~nondet1_22_fresh_1| 128)) (= v_ArrVal_93_fresh_1 (store (select |#memory_int#2_6| |main_~#string_A~0.base_4|) (+ main_~i~0_6 |main_~#string_A~0.offset_4|) |v_main_#t~nondet1_22_fresh_1|)) (= (store |#memory_int#2_6| |main_~#string_A~0.base_4| v_ArrVal_93_fresh_1) |#memory_int#2_7|) (= main_~i~0_7 (+ main_~i~0_6 1)) (< main_~i~0_6 5)) :named ssa_7))
(assert (! (and (= (store |#memory_int#2_7| |main_~#string_A~0.base_4| v_ArrVal_96_fresh_1) |#memory_int#2_8|) (<= 0 (+ |v_main_#t~nondet1_23_fresh_1| 128)) (= |v_main_#t~nondet1_23_fresh_1| v_ArrVal_95_fresh_1) (= (store (select |#memory_int#2_7| |main_~#string_A~0.base_4|) (+ main_~i~0_7 |main_~#string_A~0.offset_4|) v_ArrVal_95_fresh_1) v_ArrVal_96_fresh_1) (<= |v_main_#t~nondet1_23_fresh_1| 127) (= main_~i~0_8 (+ main_~i~0_7 1)) (< main_~i~0_7 5)) :named ssa_8))
(assert (! (and (= |#memory_int#2_9| (store |#memory_int#2_8| |main_~#string_A~0.base_4| v_ArrVal_98_fresh_1)) (= main_~i~0_9 (+ main_~i~0_8 1)) (= (store (select |#memory_int#2_8| |main_~#string_A~0.base_4|) (+ main_~i~0_8 |main_~#string_A~0.offset_4|) v_ArrVal_97_fresh_1) v_ArrVal_98_fresh_1) (= |v_main_#t~nondet1_24_fresh_1| v_ArrVal_97_fresh_1) (<= |v_main_#t~nondet1_24_fresh_1| 127) (<= 0 (+ |v_main_#t~nondet1_24_fresh_1| 128)) (< main_~i~0_8 5)) :named ssa_9))
(assert (! (<= 5 main_~i~0_9) :named ssa_10))
(assert (! (= (select (select |#memory_int#2_9| |main_~#string_A~0.base_4|) (+ |main_~#string_A~0.offset_4| 4)) |main_#t~mem3_11|) :named ssa_11))
(assert (! (and (= main_~i~0_12 0) (= |main_#t~mem3_11| 0)) :named ssa_12))
(assert (! (and (<= |v_main_#t~nondet4_20_fresh_1| 127) (= v_ArrVal_99_fresh_1 (store (select |#memory_int#1_3| |main_~#string_B~0.base_4|) (+ main_~i~0_12 |main_~#string_B~0.offset_4|) |v_main_#t~nondet4_20_fresh_1|)) (= main_~i~0_13 (+ main_~i~0_12 1)) (= v_ArrVal_100_fresh_1 |v_main_#t~nondet4_20_fresh_1|) (<= 0 (+ |v_main_#t~nondet4_20_fresh_1| 128)) (= (store |#memory_int#1_3| |main_~#string_B~0.base_4| v_ArrVal_99_fresh_1) |#memory_int#1_13|) (< main_~i~0_12 5)) :named ssa_13))
(assert (! (and (= main_~i~0_14 (+ main_~i~0_13 1)) (= v_ArrVal_101_fresh_1 (store (select |#memory_int#1_13| |main_~#string_B~0.base_4|) (+ main_~i~0_13 |main_~#string_B~0.offset_4|) |v_main_#t~nondet4_21_fresh_1|)) (<= 0 (+ |v_main_#t~nondet4_21_fresh_1| 128)) (<= |v_main_#t~nondet4_21_fresh_1| 127) (< main_~i~0_13 5) (= |#memory_int#1_14| (store |#memory_int#1_13| |main_~#string_B~0.base_4| v_ArrVal_101_fresh_1)) (= v_ArrVal_102_fresh_1 |v_main_#t~nondet4_21_fresh_1|)) :named ssa_14))
(assert (! (and (<= |v_main_#t~nondet4_22_fresh_1| 127) (= main_~i~0_15 (+ main_~i~0_14 1)) (<= 0 (+ |v_main_#t~nondet4_22_fresh_1| 128)) (= v_ArrVal_103_fresh_1 (store (select |#memory_int#1_14| |main_~#string_B~0.base_4|) (+ main_~i~0_14 |main_~#string_B~0.offset_4|) |v_main_#t~nondet4_22_fresh_1|)) (< main_~i~0_14 5) (= (store |#memory_int#1_14| |main_~#string_B~0.base_4| v_ArrVal_103_fresh_1) |#memory_int#1_15|) (= v_ArrVal_104_fresh_1 |v_main_#t~nondet4_22_fresh_1|)) :named ssa_15))
(assert (! (and (= (store |#memory_int#1_15| |main_~#string_B~0.base_4| v_ArrVal_106_fresh_1) |#memory_int#1_16|) (= main_~i~0_16 (+ main_~i~0_15 1)) (<= 0 (+ |v_main_#t~nondet4_23_fresh_1| 128)) (<= |v_main_#t~nondet4_23_fresh_1| 127) (< main_~i~0_15 5) (= v_ArrVal_105_fresh_1 |v_main_#t~nondet4_23_fresh_1|) (= v_ArrVal_106_fresh_1 (store (select |#memory_int#1_15| |main_~#string_B~0.base_4|) (+ main_~i~0_15 |main_~#string_B~0.offset_4|) v_ArrVal_105_fresh_1))) :named ssa_16))
(assert (! (and (= (store (select |#memory_int#1_16| |main_~#string_B~0.base_4|) (+ main_~i~0_16 |main_~#string_B~0.offset_4|) v_ArrVal_107_fresh_1) v_ArrVal_108_fresh_1) (= v_ArrVal_107_fresh_1 |v_main_#t~nondet4_24_fresh_1|) (= main_~i~0_17 (+ main_~i~0_16 1)) (<= 0 (+ |v_main_#t~nondet4_24_fresh_1| 128)) (<= |v_main_#t~nondet4_24_fresh_1| 127) (= (store |#memory_int#1_16| |main_~#string_B~0.base_4| v_ArrVal_108_fresh_1) |#memory_int#1_17|) (< main_~i~0_16 5)) :named ssa_17))
(assert (! (<= 5 main_~i~0_17) :named ssa_18))
(assert (! (= |main_#t~mem6_19| (select (select |#memory_int#1_17| |main_~#string_B~0.base_4|) (+ |main_~#string_B~0.offset_4| 4))) :named ssa_19))
(assert (! (and (= main_~nc_A~0_20 0) (= |main_#t~mem6_19| 0)) :named ssa_20))
(assert (! (= (select (select |#memory_int#2_9| |main_~#string_A~0.base_4|) (+ |main_~#string_A~0.offset_4| main_~nc_A~0_20)) |main_#t~mem7_21|) :named ssa_21))
(assert (! (= |main_#t~mem7_21| 0) :named ssa_22))
(assert (! (= main_~nc_B~0_23 0) :named ssa_23))
(assert (! (= |main_#t~mem9_24| (select (select |#memory_int#1_17| |main_~#string_B~0.base_4|) (+ |main_~#string_B~0.offset_4| main_~nc_B~0_23))) :named ssa_24))
(assert (! (and (not (= |main_#t~mem9_24| 0)) (= (+ |v_main_#t~post10_3_fresh_1| 1) main_~nc_B~0_25) (= |v_main_#t~post10_3_fresh_1| main_~nc_B~0_23)) :named ssa_25))
(assert (! (= |main_#t~mem9_26| (select (select |#memory_int#1_17| |main_~#string_B~0.base_4|) (+ |main_~#string_B~0.offset_4| main_~nc_B~0_25))) :named ssa_26))
(assert (! (= |main_#t~mem9_26| 0) :named ssa_27))
(assert (! (and (= main_~j~0_28 0) (<= main_~nc_A~0_20 main_~nc_B~0_25) (= main_~i~0_28 main_~j~0_28)) :named ssa_28))
(assert (! (or (<= main_~nc_B~0_25 main_~j~0_28) (<= main_~nc_A~0_20 main_~i~0_28)) :named ssa_29))
(assert (! (= main_~found~0_30 (ite (< main_~nc_B~0_25 (+ main_~j~0_28 1)) 1 0)) :named ssa_30))
(assert (! true :named ssa_31_GlobVarAssigCall))
(assert (! (= |__VERIFIER_assert_#in~cond_31| (ite (or (= main_~found~0_30 0) (= main_~found~0_30 1)) 1 0)) :named ssa_31_LocVarAssigCall))
(assert (! true :named ssa_31_OldVarAssigCall))
(assert (! (= __VERIFIER_assert_~cond_32 |__VERIFIER_assert_#in~cond_31|) :named ssa_32))
(assert (! (= __VERIFIER_assert_~cond_32 0) :named ssa_33))
(assert (! true :named ssa_34))
(check-sat)
(get-interpolants (and ssa_0_LocVarAssigCall ssa_precond ssa_0_GlobVarAssigCall ssa_0_OldVarAssigCall ssa_2_return ssa_1) (and ssa_3_OldVarAssigCall ssa_3_LocVarAssigCall ssa_3_GlobVarAssigCall) ssa_4 ssa_5 ssa_6 ssa_7 ssa_8 ssa_9 ssa_10 ssa_11 ssa_12 ssa_13 ssa_14 ssa_15 ssa_16 ssa_17 ssa_18 ssa_19 ssa_20 ssa_21 ssa_22 ssa_23 ssa_24 ssa_25 ssa_26 ssa_27 ssa_28 ssa_29 ssa_30 (and ssa_31_LocVarAssigCall ssa_31_OldVarAssigCall ssa_31_GlobVarAssigCall) ssa_32 ssa_33 (and ssa_34 ssa_postcond))
(echo "finished trace check")
(pop 1)
(echo "starting trace check")
(push 1)
(declare-fun |#memory_int#0_-2| () (Array Int (Array Int Int)))
(declare-fun |#valid_-2| () (Array Int Int))
(declare-fun |#length_-2| () (Array Int Int))
(declare-fun |#memory_int#2_-2| () (Array Int (Array Int Int)))
(declare-fun |#memory_int#1_-2| () (Array Int (Array Int Int)))
(declare-fun |old(#memory_int#0)_-2| () (Array Int (Array Int Int)))
(declare-fun |old(#valid)_-2| () (Array Int Int))
(declare-fun |old(#length)_-2| () (Array Int Int))
(declare-fun |old(#memory_int#2)_-2| () (Array Int (Array Int Int)))
(declare-fun |old(#memory_int#1)_-2| () (Array Int (Array Int Int)))
(declare-fun |#StackHeapBarrier_-1| () Int)
(assert (! true :named ssa_precond))
(assert (! (not true) :named ssa_postcond))
(assert (! (and (= (select |#valid_-2| 2) 1) (< 0 |#StackHeapBarrier_-1|) (= (select |#length_-2| 2) 11) (= (select |#valid_-2| 0) 0) (= 2 (select |#length_-2| 1)) (= (select (select |#memory_int#0_-2| 1) 1) 0) (= (select |#valid_-2| 1) 1) (= (select (select |#memory_int#0_-2| 1) 0) 48)) :named ssa_0))
(assert (! true :named ssa_1_return))
(assert (! true :named ssa_-2_PendingContext))
(assert (! true :named ssa_-2_LocVarAssignPendingContext))
(assert (! true :named ssa_-2_OldVarAssignPendingContext))
(check-sat)
(get-interpolants (and ssa_0 ssa_precond) (and ssa_-2_PendingContext ssa_-2_LocVarAssignPendingContext ssa_-2_OldVarAssignPendingContext ssa_1_return ssa_postcond))
(echo "finished trace check")
(pop 1)
(exit)
